p tw 86 206
0 1
0 53
0 64
1 17
2 3
2 4
2 5
2 6
2 33
2 51
2 73
3 4
3 5
3 6
3 20
4 5
4 6
4 60
4 74
4 85
5 6
5 13
5 21
5 32
5 39
6 14
7 8
7 9
7 10
7 47
8 9
8 10
8 31
8 48
8 58
8 59
9 10
9 25
9 26
9 27
9 28
10 36
11 12
11 31
12 45
12 46
12 47
12 48
13 14
13 21
13 32
13 39
15 16
15 66
15 72
15 81
15 83
16 84
17 18
17 62
17 63
17 64
18 19
18 20
18 21
18 62
18 63
18 64
19 20
19 21
19 53
20 21
21 32
21 39
22 23
22 24
22 67
22 82
23 24
23 39
23 68
24 61
24 62
25 26
25 27
25 28
25 43
26 27
26 28
26 42
26 44
27 28
27 35
27 36
28 65
29 30
29 77
29 78
30 70
30 75
30 79
30 80
31 48
31 58
31 59
32 33
32 34
32 39
33 34
33 51
33 73
34 52
35 36
35 65
37 38
37 57
38 45
38 56
38 72
39 68
40 41
40 42
40 59
40 60
41 42
41 79
41 85
42 44
43 44
45 46
45 47
45 48
45 56
45 72
46 47
46 48
46 66
46 67
46 68
47 48
48 58
48 59
49 50
49 54
49 81
50 55
50 82
50 83
50 84
51 52
51 73
53 64
54 55
54 81
55 82
55 83
55 84
56 57
56 58
56 72
57 58
58 59
59 60
60 74
60 85
61 62
61 69
62 63
62 64
63 64
63 69
66 67
66 68
66 72
66 81
66 83
67 68
67 82
70 71
70 75
70 79
70 80
71 76
72 81
72 83
73 74
73 75
73 76
73 77
74 75
74 76
74 77
74 85
75 76
75 77
75 79
75 80
76 77
77 78
78 80
79 80
79 85
81 83
82 83
82 84
83 84
